30 3000
1 495
2 474
3 473
4 472
5 466
6 450
7 445
8 444
9 439
10 430
11 419
12 414
13 410
14 395
15 372
16 370
17 366
18 366
19 366
20 363
21 361
22 357
23 355
24 351
25 350
26 350
27 347
28 320
29 315
30 307
